\ Model Routes
\ LP format - for model browsing. Use MPS format to capture full model detail.
Maximize
  1533.228206194839 x0 + 2157.447024458567 x1 + 2157.447024458567 x2
   - 249.2301939667805 x3 + 222.8649545650627 x4 + 892.5014194710873 x5
   + 2459.158886568422 x6 + 1455.425383485167 x7 + 1171.467780431838 x8
   + 1496.220493260636 x9 + 1554.109211312658 x10 + 2073.693355825503 x11
   + 1195.686708844285 x12 + 1626.570873763422 x13 + 880.020542205883 x14
   + 2639.667481843174 x15 + 1113.769439498867 x16 + 2409.225495625276 x17
   + 1747.998964427345 x18 + 1381.076250280491 x19 + 1152.102375073039 x20
   + 1396.606124255096 x21 + 1294.635327291279 x22 + 2794.978677865961 x23
   + 1452.40539764383 x24 + 1085.061143754021 x25 + 983.7309540698159 x26
   + 1401.218161409787 x27 + 731.984070994323 x28 + 1427.809818168949 x29
   + 1467.474373452647 x30 + 1428.935493308787 x31 - 256.140831891889 x32
   + 165.2076460747254 x33 + 1217.268818571461 x34 + 1217.268818571461 x35
   + 1524.531155494909 x36 + 1080.880445305139 x37 + 173.448577884546 x38
   + 1110.70652989534 x39 + 561.6352764520345 x40 + 343.4583612143375 x41
   + 650.5355574004577 x42 + 433.2917496505587 x43 + 469.0575162327816 x44
   + 1689.299671201619 x45 + 1758.05575088115 x46 + 994.3588645904219 x47
   + 1455.526898587981 x48 + 1449.401581565688 x49 + 509.4541185512971 x50
   + 1825.246899090692 x51 + 880.0827112542381 x52 + 741.1760333764895 x53
   + 650.5823032750191 x54 + 1691.445062888174 x55 - 278.4443928850388 x56
   - 59.13410337035452 x57 + 602.7748664658451 x58 + 1100.505917706273 x59
   + 916.1789585751681 x60 + 925.3485756504515 x61 + 850.7767431229745 x62
   + 188.8677732867749 x63 + 465.2175846111744 x64 + 1127.126554447374 x65
   + 557.4673849292966 x66 + 686.3434084238039 x67 + 709.7316892843273 x68
   + 342.2555761003598 x69 + 208.9971902923185 x70 + 465.2175846111744 x71
   - 260.2482995389823 x72 + 637.8926476026959 x73 + 1671.055740450534 x74
   + 2032.058457720655 x75 + 2003.986122242915 x76 + 1062.335361750208 x77
   + 683.2603319557181 x78 + 1298.818394794681 x79 + 2017.448508059221 x80
   + 611.8158085173332 x81 + 1998.145915637964 x82 + 1938.435717249064 x83
   + 1477.616662999381 x84 + 966.8737666168793 x85 + 1116.644248579057 x86
   + 1470.920723961145 x87 + 1983.110682238566 x88 + 714.0963249317199 x89
   + 1702.601107357943 x90 + 920.7977876676362 x91 + 1366.248860901253 x92
   + 1120.313353126508 x93 + 1642.765766745536 x94 + 1794.615434862395 x95
   + 1378.505866220259 x96 + 1476.448580034886 x97 + 1223.862905478258 x98
   + 1431.116490127825 x99 + 1511.525799549624 x100 + 1073.76374084774 x101
   + 1297.454202321468 x102 - 242.5208875955131 x103
   + 1066.379443184683 x104 + 1576.196574514046 x105
   + 1365.326677281656 x106 + 950.9107722256936 x107
   + 1090.561604570247 x108 + 1617.879111038033 x109
   + 473.5579810867677 x110 + 1076.646053538534 x111
   + 1969.226185575676 x112 + 1179.6071156378 x113 + 985.6599719858332 x114
   + 245.3765738508666 x115 + 1103.244890598791 x116
   + 1104.942532556267 x117 + 1315.874183323648 x118
   + 1104.942532556267 x119 + 2011.415766772098 x120
   + 1794.346460933399 x121 + 1807.516984768203 x122
   + 1758.863490930908 x123 + 653.5058678988478 x124
   + 1093.683999846235 x125 + 896.746367556731 x126 + 1143.61768380914 x127
   + 780.016554214544 x128 + 1964.974221047635 x129
   + 1590.717042146749 x130 + 909.4296535852754 x131
   + 1345.538173593224 x132 - 231.9775664337766 x133
   + 166.8396544238635 x134 + 729.4065638506388 x135
   + 28.14995929652076 x136 + 750.6307413355705 x137
   + 208.0067701072419 x138 + 424.7882810228476 x139
   + 88.29030329956788 x140 + 478.4742477024846 x141
   + 150.9147064703113 x142 + 453.7766321112741 x143
   + 158.0602895800514 x144 + 213.064168208326 x145
   - 231.1436095783099 x146 + 920.6780565472422 x147
   + 1436.269640462779 x148 + 1345.260662435622 x149
   + 746.7254289525409 x150 + 1316.195374556052 x151
   + 1081.682095715386 x152 + 881.5391660648784 x153
   + 2310.529287797201 x154 + 929.2176069533543 x155
   + 1239.193984460722 x156 + 1236.530733841672 x157
   + 1030.163008813878 x158 + 1089.954075281315 x159
   + 1102.972929271116 x160 + 778.9785313352463 x161
   + 795.5562244942251 x162 + 704.76129280074 x163 + 1020.796917500053 x164
   + 1074.07636565088 x165 + 425.3209940116894 x166
   + 695.6751182871277 x167 + 1916.623960618303 x168
   + 1567.408722388778 x169 + 915.4373734026262 x170
   + 166.627678835717 x171 + 471.4585927100446 x172
   + 568.3303631299044 x173 + 1245.376994714817 x174
   + 214.7766325652823 x175 + 1501.28497155165 x176
   + 929.2176069533543 x177 + 533.3222422092523 x178
   + 690.793424867137 x179 + 1163.068835939294 x180
   + 902.6826272172316 x181
Subject To
 R00: x0 <= 1
 R01: x1 <= 1
 R02: x2 <= 1
 R03: x3 <= 1
 R04: x4 <= 1
 R05: x5 <= 1
 R06: x6 <= 1
 R07: x7 <= 1
 R08: x8 <= 1
 R09: x9 <= 1
 R010: x10 <= 1
 R011: x11 <= 1
 R012: x12 <= 1
 R013: x13 <= 1
 R014: x14 <= 1
 R015: x15 <= 1
 R016: x16 <= 1
 R017: x17 <= 1
 R018: x18 <= 1
 R019: x19 <= 1
 R020: x20 <= 1
 R021: x21 <= 1
 R022: x22 <= 1
 R023: x23 <= 1
 R024: x24 <= 1
 R025: x25 <= 1
 R026: x26 <= 1
 R027: x27 <= 1
 R028: x28 <= 1
 R029: x29 <= 1
 R030: x30 <= 1
 R031: x31 <= 1
 R032: x32 <= 1
 R033: x33 <= 1
 R034: x34 <= 1
 R035: x35 <= 1
 R036: x36 <= 1
 R037: x37 <= 1
 R038: x38 <= 1
 R039: x39 <= 1
 R040: x40 <= 1
 R041: x41 <= 1
 R042: x42 <= 1
 R043: x43 <= 1
 R044: x44 <= 1
 R045: x45 <= 1
 R046: x46 <= 1
 R047: x47 <= 1
 R048: x48 <= 1
 R049: x49 <= 1
 R050: x50 <= 1
 R051: x51 <= 1
 R052: x52 <= 1
 R053: x53 <= 1
 R054: x54 <= 1
 R055: x55 <= 1
 R056: x56 <= 1
 R057: x57 <= 1
 R058: x58 <= 1
 R059: x59 <= 1
 R060: x60 <= 1
 R061: x61 <= 1
 R062: x62 <= 1
 R063: x63 <= 1
 R064: x64 <= 1
 R065: x65 <= 1
 R066: x66 <= 1
 R067: x67 <= 1
 R068: x68 <= 1
 R069: x69 <= 1
 R070: x70 <= 1
 R071: x71 <= 1
 R072: x72 <= 1
 R073: x73 <= 1
 R074: x74 <= 1
 R075: x75 <= 1
 R076: x76 <= 1
 R077: x77 <= 1
 R078: x78 <= 1
 R079: x79 <= 1
 R080: x80 <= 1
 R081: x81 <= 1
 R082: x82 <= 1
 R083: x83 <= 1
 R084: x84 <= 1
 R085: x85 <= 1
 R086: x86 <= 1
 R087: x87 <= 1
 R088: x88 <= 1
 R089: x89 <= 1
 R090: x90 <= 1
 R091: x91 <= 1
 R092: x92 <= 1
 R093: x93 <= 1
 R094: x94 <= 1
 R095: x95 <= 1
 R096: x96 <= 1
 R097: x97 <= 1
 R098: x98 <= 1
 R099: x99 <= 1
 R0100: x100 <= 1
 R0101: x101 <= 1
 R0102: x102 <= 1
 R0103: x103 <= 1
 R0104: x104 <= 1
 R0105: x105 <= 1
 R0106: x106 <= 1
 R0107: x107 <= 1
 R0108: x108 <= 1
 R0109: x109 <= 1
 R0110: x110 <= 1
 R0111: x111 <= 1
 R0112: x112 <= 1
 R0113: x113 <= 1
 R0114: x114 <= 1
 R0115: x115 <= 1
 R0116: x116 <= 1
 R0117: x117 <= 1
 R0118: x118 <= 1
 R0119: x119 <= 1
 R0120: x120 <= 1
 R0121: x121 <= 1
 R0122: x122 <= 1
 R0123: x123 <= 1
 R0124: x124 <= 1
 R0125: x125 <= 1
 R0126: x126 <= 1
 R0127: x127 <= 1
 R0128: x128 <= 1
 R0129: x129 <= 1
 R0130: x130 <= 1
 R0131: x131 <= 1
 R0132: x132 <= 1
 R0133: x133 <= 1
 R0134: x134 <= 1
 R0135: x135 <= 1
 R0136: x136 <= 1
 R0137: x137 <= 1
 R0138: x138 <= 1
 R0139: x139 <= 1
 R0140: x140 <= 1
 R0141: x141 <= 1
 R0142: x142 <= 1
 R0143: x143 <= 1
 R0144: x144 <= 1
 R0145: x145 <= 1
 R0146: x146 <= 1
 R0147: x147 <= 1
 R0148: x148 <= 1
 R0149: x149 <= 1
 R0150: x150 <= 1
 R0151: x151 <= 1
 R0152: x152 <= 1
 R0153: x153 <= 1
 R0154: x154 <= 1
 R0155: x155 <= 1
 R0156: x156 <= 1
 R0157: x157 <= 1
 R0158: x158 <= 1
 R0159: x159 <= 1
 R0160: x160 <= 1
 R0161: x161 <= 1
 R0162: x162 <= 1
 R0163: x163 <= 1
 R0164: x164 <= 1
 R0165: x165 <= 1
 R0166: x166 <= 1
 R0167: x167 <= 1
 R0168: x168 <= 1
 R0169: x169 <= 1
 R0170: x170 <= 1
 R0171: x171 <= 1
 R0172: x172 <= 1
 R0173: x173 <= 1
 R0174: x174 <= 1
 R0175: x175 <= 1
 R0176: x176 <= 1
 R0177: x177 <= 1
 R0178: x178 <= 1
 R0179: x179 <= 1
 R0180: x180 <= 1
 R0181: x181 <= 1
 R1_0: x0 + x1 + x2 + x3 + x4 + x5 + x6 + x7 + x8 + x9 + x10 + x11 + x12
   + x13 + x14 + x15 + x16 + x17 + x18 + x19 + x20 + x21 + x22 + x23 + x24
   + x25 + x26 + x27 + x28 + x29 + x30 + x31 <= 1
 R1_1: x32 + x33 + x34 + x35 + x36 + x37 + x38 + x39 + x40 + x41 + x42
   + x43 + x44 + x45 + x46 + x47 + x48 + x49 + x50 + x51 + x52 + x53 + x54
   + x55 <= 1
 R1_2: x56 + x57 + x58 + x59 + x60 + x61 + x62 + x63 + x64 + x65 + x66
   + x67 + x68 + x69 + x70 + x71 <= 1
 R1_3: x72 + x73 + x74 + x75 + x76 + x77 + x78 + x79 + x80 + x81 + x82
   + x83 + x84 + x85 + x86 + x87 + x88 + x89 + x90 + x91 + x92 + x93 + x94
   + x95 + x96 + x97 + x98 + x99 + x100 + x101 + x102 <= 1
 R1_4: x103 + x104 + x105 + x106 + x107 + x108 + x109 + x110 + x111 + x112
   + x113 + x114 + x115 + x116 + x117 + x118 + x119 + x120 + x121 + x122
   + x123 + x124 + x125 + x126 + x127 + x128 + x129 + x130 + x131 + x132
   <= 1
 R1_5: x133 + x134 + x135 + x136 + x137 + x138 + x139 + x140 + x141 + x142
   + x143 + x144 + x145 <= 1
 R1_6: x146 + x147 + x148 + x149 + x150 + x151 + x152 + x153 + x154 + x155
   + x156 + x157 + x158 + x159 + x160 + x161 + x162 + x163 + x164 + x165
   + x166 + x167 + x168 + x169 + x170 + x171 + x172 + x173 + x174 + x175
   + x176 + x177 + x178 + x179 + x180 + x181 <= 1
 R2_0: 7 x0 + 7 x1 + 7 x2 + 7 x6 + 7 x7 + 7 x8 + 7 x9 + 7 x10 + 7 x11
   + 7 x13 + 7 x15 + 7 x16 + 7 x17 + 7 x18 + 7 x19 + 7 x20 + 7 x21 + 7 x22
   + 7 x23 + 7 x25 + 7 x26 + 7 x27 + 7 x29 + 7 x30 + 7 x31 + 7 x93 + 7 x102
   <= 7
 R2_1: 10 x36 + 10 x43 + 10 x46 + 10 x52 + 10 x54 + 10 x62 + 10 x63
   + 10 x68 + 10 x73 + 10 x74 + 10 x75 + 10 x76 + 10 x78 + 10 x79 + 10 x80
   + 10 x82 + 10 x83 + 10 x85 + 10 x89 + 10 x92 + 10 x96 + 10 x97 + 10 x99
   + 10 x100 + 10 x172 <= 10
 R2_2: <= 0
 R2_3: 4 x40 + 4 x42 + 4 x134 + 4 x135 + 4 x136 + 4 x137 + 4 x143 + 4 x145
   <= 4
 R2_4: <= 0
 R2_5: 5 x134 + 5 x135 + 5 x141 + 5 x145 <= 5
 R2_6: 10 x33 + 10 x34 + 10 x35 + 10 x36 + 10 x37 + 10 x38 + 10 x41
   + 10 x42 + 10 x44 + 10 x45 + 10 x46 + 10 x47 + 10 x48 + 10 x49 + 10 x50
   + 10 x51 + 10 x53 + 10 x55 + 10 x61 + 10 x66 + 10 x67 + 10 x81 + 9 x138
   <= 10
 R2_7: 6 x33 + 6 x34 + 6 x35 + 6 x37 + 6 x38 + 6 x43 + 6 x48 + 6 x53
   + 6 x55 <= 6
 R2_8: <= 0
 R2_9: 12 x104 + 12 x105 + 12 x106 + 12 x107 + 12 x108 + 12 x109 + 12 x110
   + 12 x111 + 12 x112 + 12 x113 + 12 x114 + 12 x115 + 11 x116 + 12 x117
   + 12 x118 + 12 x119 + 12 x120 + 12 x121 + 12 x122 + 12 x123 + 12 x124
   + 12 x125 + 12 x126 + 12 x127 + 12 x128 + 12 x129 + 12 x130 + 11 x131
   + 12 x132 + 12 x160 + 12 x176 <= 12
 R2_10: 8 x147 + 8 x148 + 8 x149 + 8 x152 + 8 x164 <= 8
 R2_11: 15 x93 <= 15
 R2_12: <= 0
 R2_13: <= 0
 R2_14: <= 0
 R2_15: 11 x0 + 11 x1 + 11 x2 + 11 x6 + 11 x7 + 11 x8 + 11 x9 + 11 x15
   + 11 x16 + 11 x17 + 11 x18 + 11 x20 + 11 x22 + 11 x23 + 11 x25 + 11 x27
   + 11 x28 + 11 x29 + 11 x104 + 11 x105 + 11 x107 + 11 x109 + 11 x110
   + 11 x116 + 11 x117 + 11 x119 + 11 x120 + 11 x122 + 11 x123 + 11 x125
   + 11 x131 <= 11
 R2_16: 5 x10 + 5 x12 + 5 x14 + 5 x24 + 5 x123 + 5 x127 + 5 x129 + 5 x130
   <= 5
 R2_17: 11 x25 + 11 x28 + 11 x29 + 11 x30 + 11 x31 + 11 x162 + 11 x165
   + 11 x178 + 11 x179 <= 11
 R2_18: <= 0
 R2_19: 11 x6 + 11 x23 + 11 x39 + 11 x40 + 11 x60 + 10 x76 + 11 x104
   + 11 x105 + 11 x106 + 11 x107 + 11 x108 + 11 x109 + 11 x111 + 11 x113
   + 11 x116 + 11 x117 + 11 x119 + 11 x120 + 11 x121 + 8 x122 + 8 x123
   + 11 x125 + 11 x126 + 11 x127 + 8 x129 + 11 x130 + 11 x131 + 11 x132
   + 11 x141 <= 11
 R2_20: 13 x59 + 13 x64 + 13 x65 + 13 x71 + 10 x74 + 10 x75 + 10 x77
   + 10 x79 + 10 x80 + 10 x82 + 8 x84 + 10 x86 + 8 x87 + 8 x88 + 10 x100
   <= 13
 R2_21: <= 0
 R2_22: 10 x16 + 10 x20 + 10 x25 + 10 x26 + 10 x28 + 10 x31 + 10 x115
   + 10 x121 + 10 x178 <= 10
 R2_23: 14 x23 + 14 x76 + 14 x82 + 14 x94 + 14 x95 + 14 x99 + 14 x106
   + 14 x114 + 14 x128 + 14 x129 + 14 x130 + 14 x152 + 14 x174 <= 14
 R2_24: 10 x10 + 10 x24 + 10 x27 + 10 x61 + 10 x66 + 10 x73 + 10 x74
   + 10 x75 + 10 x77 + 10 x78 + 10 x79 + 10 x81 + 10 x86 + 10 x89 + 10 x93
   + 10 x96 + 10 x97 <= 10
 R2_25: 13 x0 + 13 x1 + 13 x2 + 13 x6 + 13 x7 + 13 x8 + 13 x9 + 13 x10
   + 13 x11 + 13 x12 + 13 x13 + 13 x15 + 5 x16 + 13 x17 + 13 x18 + 13 x20
   + 13 x21 + 13 x22 + 13 x23 + 13 x24 + 5 x26 + 13 x27 + 13 x104 + 13 x105
   + 13 x106 + 13 x107 + 13 x108 + 13 x109 + 13 x110 + 13 x114 + 13 x116
   + 13 x117 + 13 x119 + 13 x120 + 13 x122 + 13 x123 + 13 x124 + 13 x125
   + 13 x126 + 13 x127 + 13 x128 + 13 x129 + 13 x130 + 13 x131 + 13 x167
   <= 13
 R2_26: 6 x42 + 6 x134 + 6 x135 + 6 x136 + 6 x137 + 6 x138 + 6 x141
   + 6 x143 + 6 x144 + 6 x145 <= 6
 R2_27: 5 x6 + 5 x12 + 5 x15 + 5 x20 + 5 x23 + 5 x25 + 5 x31 + 5 x36
   + 5 x43 + 5 x45 + 5 x46 + 5 x47 + 5 x49 + 5 x51 + 5 x52 + 5 x54 + 5 x55
   + 5 x61 + 5 x67 + 5 x69 + 5 x70 + 5 x76 + 5 x85 + 5 x88 + 5 x92 + 5 x94
   + 5 x95 + 5 x98 + 5 x101 + 5 x102 + 5 x122 + 5 x125 + 5 x142 + 5 x143
   + 5 x147 + 5 x148 + 5 x149 + 5 x150 + 5 x151 + 5 x152 + 5 x153 + 5 x154
   + 5 x155 + 5 x156 + 5 x157 + 5 x158 + 5 x159 + 5 x161 + 5 x162 + 5 x163
   + 5 x165 + 5 x167 + 5 x168 + 5 x169 + 5 x170 + 5 x171 + 5 x173 + 5 x174
   + 5 x176 + 5 x177 + 5 x178 + 5 x179 + 5 x180 + 5 x181 <= 5
 R2_28: <= 0
 R2_29: <= 0
 R2_30: <= 0
 R2_31: <= 0
 R2_32: 7 x4 + 7 x5 + 7 x45 + 7 x50 + 7 x140 + 7 x144 + 7 x181 <= 7
 R2_33: 12 x46 + 12 x49 + 12 x76 + 12 x93 + 12 x94 + 12 x95 + 12 x97
   + 12 x98 + 12 x99 + 12 x100 + 12 x166 + 12 x173 + 12 x175 <= 12
 R2_34: 5 x0 + 5 x1 + 5 x2 + 5 x6 + 5 x7 + 5 x8 + 5 x9 + 5 x10 + 5 x11
   + 5 x13 + 5 x15 + 5 x16 + 5 x17 + 5 x18 + 5 x19 + 5 x21 + 5 x23 + 5 x26
   + 5 x29 + 5 x30 + 5 x121 + 5 x165 <= 5
 R2_35: 10 x91 + 13 x162 <= 13
 R2_36: 15 x33 + 15 x34 + 15 x35 + 15 x36 + 15 x38 + 15 x46 + 15 x49
   + 15 x53 + 15 x54 + 15 x55 <= 16
 R2_37: 5 x73 + 5 x74 + 5 x75 + 5 x76 + 5 x77 + 5 x78 + 5 x79 + 5 x80
   + 5 x81 + 5 x82 + 5 x83 + 5 x85 + 5 x86 + 5 x89 + 5 x90 + 5 x92 + 5 x94
   + 5 x95 + 5 x97 + 5 x99 + 5 x100 + 5 x101 + 5 x102 + 5 x140 <= 5
 R2_38: <= 0
 R2_39: 15 x0 + 15 x1 + 15 x2 + 15 x6 + 15 x9 + 15 x11 + 15 x15 + 15 x16
   + 15 x17 + 15 x18 + 15 x20 + 15 x22 + 15 x25 + 15 x26 + 15 x27 + 15 x28
   + 15 x29 + 15 x30 <= 17
 R2_40: 15 x57 + 15 x58 + 15 x59 + 15 x60 + 15 x61 + 15 x62 + 15 x63
   + 15 x64 + 15 x65 + 15 x66 + 15 x67 + 15 x69 + 15 x71 + 15 x175 <= 15
 R2_41: 5 x0 + 5 x1 + 5 x2 + 5 x7 + 5 x9 + 5 x11 + 5 x13 + 5 x15 + 5 x17
   + 5 x18 + 5 x19 + 5 x21 + 5 x22 + 5 x24 + 5 x27 + 5 x29 + 5 x30 + 5 x34
   + 5 x35 + 5 x45 + 5 x47 + 5 x48 + 5 x51 + 5 x53 + 5 x55 + 5 x74 + 5 x75
   + 5 x80 + 5 x82 + 5 x83 + 5 x84 + 5 x86 + 5 x87 + 5 x88 + 5 x90 + 5 x91
   + 5 x92 + 5 x96 + 5 x101 + 5 x102 + 5 x111 + 5 x112 + 5 x113 + 5 x118
   + 5 x120 + 5 x124 + 5 x132 + 5 x154 + 5 x156 + 5 x158 + 5 x160 + 5 x164
   + 5 x169 <= 5
 R2_42: 4 x57 + 4 x58 + 4 x59 + 4 x64 + 4 x65 + 4 x69 + 4 x70 + 4 x71 <= 4
 R2_43: <= 0
 R2_44: <= 0
 R2_45: <= 0
 R2_46: 9 x7 + 9 x8 + 9 x10 + 9 x12 + 9 x13 + 9 x14 + 9 x19 + 9 x21 + 9 x31
   + 9 x121 + 9 x132 <= 9
 R2_47: 7 x0 + 7 x1 + 7 x2 + 7 x6 + 7 x9 + 7 x13 + 7 x15 + 7 x16 + 7 x17
   + 7 x18 + 7 x20 + 7 x23 + 7 x29 + 7 x134 + 7 x135 + 7 x137 + 7 x141
   + 7 x143 + 7 x145 <= 7
 R2_48: 4 x19 + 4 x24 + 4 x104 + 4 x105 + 4 x106 + 4 x107 + 4 x108 + 4 x109
   + 4 x110 + 4 x111 + 4 x112 + 4 x113 + 4 x114 + 4 x116 + 4 x117 + 4 x118
   + 4 x119 + 4 x120 + 4 x121 + 4 x122 + 4 x123 + 4 x124 + 4 x126 + 4 x128
   + 4 x131 <= 4
 R2_49: <= 0
 R2_50: <= 0
 R2_51: 11 x22 + 11 x30 + 11 x53 + 11 x66 + 11 x104 + 11 x108 + 11 x116
   + 11 x117 + 11 x119 + 11 x121 + 11 x125 + 11 x126 + 11 x127 + 11 x131
   + 11 x166 + 11 x175 <= 11
 R2_52: 10 x113 + 10 x132 <= 10
 R2_53: 13 x104 + 13 x105 + 13 x106 + 13 x107 + 13 x108 + 13 x109 + 13 x111
   + 13 x116 + 13 x117 + 13 x119 + 13 x120 + 13 x122 + 13 x125 + 13 x127
   + 13 x128 <= 13
 R2_54: 9 x73 + 9 x74 + 9 x75 + 9 x77 + 9 x78 + 9 x79 + 9 x80 + 9 x81
   + 9 x82 + 9 x83 + 9 x84 + 9 x86 + 9 x87 + 9 x88 + 9 x89 + 9 x90 + 9 x91
   + 9 x92 + 9 x93 + 9 x96 + 9 x97 + 9 x98 + 9 x99 + 9 x100 + 9 x101
   + 9 x102 <= 9
 R2_55: 8 x147 + 8 x148 + 8 x149 + 8 x151 + 8 x152 + 8 x154 + 8 x155
   + 8 x156 + 8 x158 + 8 x159 + 8 x168 + 8 x169 + 8 x170 + 8 x172 + 8 x176
   + 8 x177 + 8 x180 + 8 x181 <= 8
 R2_56: <= 6
 R2_57: <= 0
 R2_58: <= 0
 R2_59: 10 x14 + 10 x85 + 10 x87 + 10 x88 + 10 x91 + 10 x95 + 10 x112
   + 10 x114 + 10 x118 + 10 x153 + 10 x157 + 10 x160 + 10 x163 + 10 x164
   + 10 x165 + 10 x167 <= 10
 R2_60: <= 0
 R2_61: 9 x10 + 9 x12 + 9 x14 + 9 x24 + 9 x28 + 9 x76 + 9 x83 + 9 x90
   + 9 x93 + 9 x94 + 9 x95 + 9 x96 <= 9
 R2_62: 10 x162 + 10 x164 <= 10
 R2_63: <= 0
 R2_64: <= 0
 R2_65: 5 x15 + 5 x17 + 5 x18 + 5 x91 + 5 x98 + 5 x121 + 5 x130 + 5 x147
   + 5 x148 + 5 x149 + 5 x150 + 5 x151 + 5 x152 + 5 x154 + 5 x155 + 5 x156
   + 5 x158 + 5 x159 + 5 x160 + 5 x161 + 5 x164 + 5 x166 + 5 x168 + 5 x170
   + 5 x174 + 5 x177 + 5 x180 <= 5
 R2_66: 7 x47 + 7 x52 + 7 x54 + 7 x147 + 7 x150 + 7 x153 + 7 x154 + 7 x155
   + 7 x156 + 7 x158 + 7 x160 + 7 x161 + 7 x162 + 7 x163 + 7 x164 + 7 x165
   + 7 x168 + 7 x170 + 7 x172 + 7 x173 + 7 x176 + 7 x177 + 7 x179 + 7 x180
   + 7 x181 <= 7
 R2_67: 3 x6 + 3 x8 + 3 x23 + 3 x74 + 3 x75 + 3 x77 + 3 x80 + 3 x82 + 3 x83
   + 3 x90 + 3 x92 + 3 x96 + 3 x97 + 3 x98 + 3 x99 + 3 x101 + 3 x102
   + 3 x112 + 3 x118 + 3 x154 + 3 x159 + 3 x168 + 3 x174 + 3 x180 + 3 x181
   <= 3
 R2_68: 6 x44 + 6 x61 + 6 x67 + 6 x147 + 6 x148 + 6 x149 + 6 x150 + 6 x151
   + 6 x153 + 6 x154 + 6 x155 + 6 x156 + 6 x159 + 6 x161 + 6 x162 + 6 x166
   + 6 x168 + 6 x169 + 6 x170 + 6 x176 + 6 x177 + 6 x179 + 6 x180 <= 6
 R2_69: 7 x0 + 7 x1 + 7 x2 + 7 x9 + 7 x11 + 7 x13 + 7 x16 + 7 x17 + 7 x18
   + 7 x22 + 7 x26 + 7 x27 + 7 x29 + 7 x30 + 7 x31 + 7 x76 + 7 x94 + 7 x98
   + 7 x104 + 7 x105 + 7 x106 + 7 x107 + 7 x108 + 7 x109 + 7 x110 + 7 x111
   + 7 x112 + 7 x113 + 7 x115 + 7 x116 + 7 x117 + 7 x118 + 7 x119 + 7 x120
   + 4 x121 + 7 x123 + 4 x126 + 7 x127 + 7 x129 + 7 x130 + 4 x131 + 7 x132
   + 7 x160 + 7 x164 <= 7
 R2_70: 11 x33 + 11 x34 + 11 x35 + 11 x36 + 11 x38 <= 11
 R2_71: 7 x73 + 7 x74 + 7 x75 + 7 x77 + 7 x78 + 7 x79 + 7 x81 + 7 x82
   + 7 x85 + 7 x86 + 7 x89 + 7 x91 + 7 x93 + 7 x97 + 7 x99 + 7 x172 <= 7
 R2_72: <= 0
 R2_73: 11 x0 + 11 x1 + 11 x2 + 11 x7 + 11 x9 + 11 x11 + 11 x13 + 11 x15
   + 11 x16 + 11 x17 + 11 x18 + 11 x19 + 11 x20 + 11 x21 + 11 x22 + 11 x24
   + 11 x25 + 11 x26 + 11 x27 + 11 x28 + 11 x29 + 11 x30 + 11 x31 <= 11
 R2_74: 5 x134 + 5 x141 + 5 x145 <= 5
 R2_75: 8 x147 + 8 x148 + 8 x150 + 8 x152 + 8 x153 + 8 x155 + 8 x157
   + 8 x159 + 8 x161 + 8 x162 + 8 x163 + 8 x170 + 8 x174 + 8 x177 <= 8
 R2_76: 12 x4 + 12 x5 + 12 x37 + 12 x39 + 12 x40 + 12 x41 + 12 x42 + 12 x44
   + 12 x48 + 12 x50 + 12 x51 + 12 x52 + 12 x75 + 12 x79 + 12 x84 + 12 x94
   + 12 x95 + 12 x97 <= 12
 R2_77: 7 x1 + 7 x2 + 7 x5 + 7 x6 + 7 x11 + 7 x15 + 7 x17 + 7 x23 + 7 x34
   + 7 x35 + 7 x36 + 7 x37 + 7 x39 + 7 x45 + 7 x46 + 7 x48 + 7 x49 + 7 x51
   + 7 x55 + 7 x58 + 7 x59 + 7 x60 + 7 x62 + 7 x65 + 7 x68 + 7 x80 + 7 x83
   + 7 x84 + 7 x87 + 7 x88 + 7 x90 + 7 x100 + 7 x105 + 7 x109 + 7 x112
   + 7 x120 + 7 x122 + 7 x123 + 7 x129 + 7 x135 + 7 x137 + 7 x139 + 7 x148
   + 7 x149 + 7 x151 + 7 x154 + 7 x157 + 7 x168 + 7 x169 + 7 x176 <= 7
Bounds
End
